partsInCell = 48;
initialHolder = array1d(1..48, [22, 22, 22, 22, 22, 22, 22, 22, 22, 22, 22, 22, 26, 26, 26, 26, 23, 23, 23, 23, 23, 23, 23, 23, 23, 23, 23, 23, 27, 27, 27, 27, 24, 24, 24, 24, 24, 24, 24, 24, 25, 25, 25, 25, 25, 25, 25, 25]);
potentialHolders = array1d(1..48, [{26, 22}, {26, 22}, {26, 22}, {26, 22}, {26, 22}, {26, 22}, {26, 22}, {26, 22}, {26, 22}, {26, 22}, {26, 22}, {26, 22}, {26, 22}, {26, 22}, {26, 22}, {26, 22}, {27, 23}, {27, 23}, {27, 23}, {27, 23}, {27, 23}, {27, 23}, {27, 23}, {27, 23}, {27, 23}, {27, 23}, {27, 23}, {27, 23}, {27, 23}, {27, 23}, {27, 23}, {27, 23}, {32, 24, 25, 30, 31}, {32, 24, 25, 30, 31}, {32, 24, 25, 30, 31}, {32, 24, 25, 30, 31}, {32, 24, 25, 30, 31}, {32, 24, 25, 30, 31}, {32, 24, 25, 30, 31}, {32, 24, 25, 30, 31}, {32, 24, 25, 30, 31}, {32, 24, 25, 30, 31}, {32, 24, 25, 30, 31}, {32, 24, 25, 30, 31}, {32, 24, 25, 30, 31}, {32, 24, 25, 30, 31}, {32, 24, 25, 30, 31}, {32, 24, 25, 30, 31}]);
potentialHandlers = array1d(1..48, [{6, 9, 12, 15, 18}, {6, 9, 12, 15, 18}, {6, 9, 12, 15, 18}, {6, 9, 12, 15, 18}, {6, 9, 12, 15, 18}, {6, 9, 12, 15, 18}, {6, 9, 12, 15, 18}, {6, 9, 12, 15, 18}, {6, 9, 12, 15, 18}, {6, 9, 12, 15, 18}, {6, 9, 12, 15, 18}, {6, 9, 12, 15, 18}, {6, 9, 12, 15, 18}, {6, 9, 12, 15, 18}, {6, 9, 12, 15, 18}, {6, 9, 12, 15, 18}, {6, 9, 12, 15, 18}, {6, 9, 12, 15, 18}, {6, 9, 12, 15, 18}, {6, 9, 12, 15, 18}, {6, 9, 12, 15, 18}, {6, 9, 12, 15, 18}, {6, 9, 12, 15, 18}, {6, 9, 12, 15, 18}, {6, 9, 12, 15, 18}, {6, 9, 12, 15, 18}, {6, 9, 12, 15, 18}, {6, 9, 12, 15, 18}, {6, 9, 12, 15, 18}, {6, 9, 12, 15, 18}, {6, 9, 12, 15, 18}, {6, 9, 12, 15, 18}, {6, 9, 12, 15, 18}, {6, 9, 12, 15, 18}, {6, 9, 12, 15, 18}, {6, 9, 12, 15, 18}, {6, 9, 12, 15, 18}, {6, 9, 12, 15, 18}, {6, 9, 12, 15, 18}, {6, 9, 12, 15, 18}, {6, 9, 12, 15, 18}, {6, 9, 12, 15, 18}, {6, 9, 12, 15, 18}, {6, 9, 12, 15, 18}, {6, 9, 12, 15, 18}, {6, 9, 12, 15, 18}, {6, 9, 12, 15, 18}, {6, 9, 12, 15, 18}]);
mayBeTransferredToFreeHolder = array1d(1..48, [true, true, true, true, true, true, true, true, true, true, true, true, true, true, true, true, true, true, true, true, true, true, true, true, true, true, true, true, true, true, true, true, true, true, true, true, true, true, true, true, true, true, true, true, true, true, true, true]);
